p edge 64 728
e 1 10 3
e 1 19 1
e 1 28 4
e 1 37 8
e 1 46 8
e 1 55 3
e 1 64 4
e 1 2 4
e 1 3 10
e 1 4 10
e 1 5 2
e 1 6 4
e 1 7 2
e 1 8 4
e 1 9 6
e 1 17 7
e 1 25 6
e 1 33 10
e 1 41 4
e 1 49 6
e 1 57 10
e 2 11 7
e 2 20 3
e 2 29 9
e 2 38 6
e 2 47 6
e 2 56 7
e 2 9 3
e 2 3 5
e 2 4 9
e 2 5 1
e 2 6 5
e 2 7 8
e 2 8 8
e 2 10 8
e 2 18 4
e 2 26 8
e 2 34 10
e 2 42 2
e 2 50 5
e 2 58 8
e 3 12 3
e 3 21 4
e 3 30 4
e 3 39 3
e 3 48 4
e 3 10 2
e 3 17 3
e 3 4 2
e 3 5 2
e 3 6 7
e 3 7 9
e 3 8 8
e 3 11 10
e 3 19 3
e 3 27 4
e 3 35 7
e 3 43 4
e 3 51 2
e 3 59 1
e 4 13 8
e 4 22 10
e 4 31 7
e 4 40 10
e 4 11 9
e 4 18 9
e 4 25 3
e 4 5 1
e 4 6 7
e 4 7 3
e 4 8 7
e 4 12 6
e 4 20 2
e 4 28 2
e 4 36 9
e 4 44 9
e 4 52 5
e 4 60 9
e 5 14 4
e 5 23 6
e 5 32 4
e 5 12 7
e 5 19 5
e 5 26 6
e 5 33 3
e 5 6 10
e 5 7 10
e 5 8 5
e 5 13 10
e 5 21 7
e 5 29 5
e 5 37 8
e 5 45 6
e 5 53 5
e 5 61 2
e 6 15 10
e 6 24 2
e 6 13 10
e 6 20 2
e 6 27 7
e 6 34 6
e 6 41 8
e 6 7 6
e 6 8 5
e 6 14 6
e 6 22 9
e 6 30 6
e 6 38 1
e 6 46 7
e 6 54 1
e 6 62 10
e 7 16 6
e 7 14 1
e 7 21 9
e 7 28 5
e 7 35 6
e 7 42 6
e 7 49 7
e 7 8 3
e 7 15 8
e 7 23 9
e 7 31 9
e 7 39 9
e 7 47 2
e 7 55 7
e 7 63 10
e 8 15 9
e 8 22 8
e 8 29 2
e 8 36 7
e 8 43 5
e 8 50 8
e 8 57 6
e 8 16 8
e 8 24 8
e 8 32 7
e 8 40 9
e 8 48 4
e 8 56 10
e 8 64 7
e 9 18 8
e 9 27 10
e 9 36 3
e 9 45 8
e 9 54 6
e 9 63 5
e 9 10 6
e 9 11 1
e 9 12 8
e 9 13 10
e 9 14 10
e 9 15 6
e 9 16 2
e 9 17 7
e 9 25 7
e 9 33 1
e 9 41 7
e 9 49 4
e 9 57 5
e 10 19 2
e 10 28 5
e 10 37 2
e 10 46 10
e 10 55 3
e 10 64 2
e 10 17 1
e 10 11 3
e 10 12 8
e 10 13 4
e 10 14 9
e 10 15 2
e 10 16 8
e 10 18 2
e 10 26 7
e 10 34 6
e 10 42 4
e 10 50 7
e 10 58 2
e 11 20 5
e 11 29 7
e 11 38 5
e 11 47 2
e 11 56 4
e 11 18 3
e 11 25 9
e 11 12 10
e 11 13 10
e 11 14 6
e 11 15 8
e 11 16 8
e 11 19 1
e 11 27 2
e 11 35 9
e 11 43 7
e 11 51 6
e 11 59 4
e 12 21 2
e 12 30 9
e 12 39 8
e 12 48 10
e 12 19 8
e 12 26 6
e 12 33 2
e 12 13 4
e 12 14 4
e 12 15 6
e 12 16 10
e 12 20 2
e 12 28 4
e 12 36 2
e 12 44 3
e 12 52 3
e 12 60 3
e 13 22 10
e 13 31 7
e 13 40 9
e 13 20 4
e 13 27 7
e 13 34 2
e 13 41 1
e 13 14 4
e 13 15 5
e 13 16 5
e 13 21 8
e 13 29 9
e 13 37 3
e 13 45 2
e 13 53 1
e 13 61 4
e 14 23 5
e 14 32 9
e 14 21 1
e 14 28 7
e 14 35 7
e 14 42 9
e 14 49 2
e 14 15 2
e 14 16 3
e 14 22 8
e 14 30 10
e 14 38 3
e 14 46 9
e 14 54 7
e 14 62 10
e 15 24 8
e 15 22 5
e 15 29 8
e 15 36 6
e 15 43 5
e 15 50 1
e 15 57 4
e 15 16 8
e 15 23 8
e 15 31 1
e 15 39 4
e 15 47 4
e 15 55 6
e 15 63 9
e 16 23 8
e 16 30 6
e 16 37 2
e 16 44 5
e 16 51 3
e 16 58 3
e 16 24 2
e 16 32 2
e 16 40 7
e 16 48 5
e 16 56 5
e 16 64 6
e 17 26 8
e 17 35 5
e 17 44 9
e 17 53 7
e 17 62 8
e 17 18 1
e 17 19 4
e 17 20 10
e 17 21 6
e 17 22 10
e 17 23 9
e 17 24 6
e 17 25 1
e 17 33 5
e 17 41 4
e 17 49 6
e 17 57 6
e 18 27 7
e 18 36 1
e 18 45 5
e 18 54 4
e 18 63 6
e 18 25 1
e 18 19 1
e 18 20 3
e 18 21 8
e 18 22 2
e 18 23 6
e 18 24 1
e 18 26 9
e 18 34 5
e 18 42 7
e 18 50 4
e 18 58 6
e 19 28 6
e 19 37 4
e 19 46 2
e 19 55 6
e 19 64 5
e 19 26 10
e 19 33 1
e 19 20 7
e 19 21 6
e 19 22 8
e 19 23 10
e 19 24 4
e 19 27 9
e 19 35 8
e 19 43 9
e 19 51 8
e 19 59 7
e 20 29 10
e 20 38 4
e 20 47 3
e 20 56 7
e 20 27 6
e 20 34 2
e 20 41 7
e 20 21 1
e 20 22 9
e 20 23 4
e 20 24 3
e 20 28 9
e 20 36 10
e 20 44 10
e 20 52 9
e 20 60 7
e 21 30 6
e 21 39 7
e 21 48 8
e 21 28 6
e 21 35 8
e 21 42 10
e 21 49 8
e 21 22 8
e 21 23 10
e 21 24 9
e 21 29 9
e 21 37 8
e 21 45 4
e 21 53 2
e 21 61 6
e 22 31 9
e 22 40 9
e 22 29 4
e 22 36 3
e 22 43 9
e 22 50 6
e 22 57 7
e 22 23 8
e 22 24 1
e 22 30 6
e 22 38 6
e 22 46 6
e 22 54 7
e 22 62 2
e 23 32 8
e 23 30 6
e 23 37 8
e 23 44 5
e 23 51 10
e 23 58 4
e 23 24 8
e 23 31 7
e 23 39 3
e 23 47 2
e 23 55 4
e 23 63 1
e 24 31 3
e 24 38 4
e 24 45 6
e 24 52 7
e 24 59 10
e 24 32 10
e 24 40 8
e 24 48 5
e 24 56 5
e 24 64 9
e 25 34 7
e 25 43 9
e 25 52 9
e 25 61 6
e 25 26 5
e 25 27 3
e 25 28 10
e 25 29 7
e 25 30 5
e 25 31 6
e 25 32 6
e 25 33 2
e 25 41 1
e 25 49 7
e 25 57 6
e 26 35 9
e 26 44 3
e 26 53 6
e 26 62 4
e 26 33 7
e 26 27 10
e 26 28 7
e 26 29 7
e 26 30 4
e 26 31 3
e 26 32 4
e 26 34 2
e 26 42 1
e 26 50 3
e 26 58 8
e 27 36 6
e 27 45 1
e 27 54 10
e 27 63 10
e 27 34 9
e 27 41 1
e 27 28 1
e 27 29 7
e 27 30 5
e 27 31 4
e 27 32 2
e 27 35 3
e 27 43 9
e 27 51 1
e 27 59 8
e 28 37 7
e 28 46 6
e 28 55 2
e 28 64 9
e 28 35 6
e 28 42 5
e 28 49 10
e 28 29 5
e 28 30 8
e 28 31 9
e 28 32 6
e 28 36 10
e 28 44 6
e 28 52 5
e 28 60 10
e 29 38 9
e 29 47 9
e 29 56 5
e 29 36 9
e 29 43 8
e 29 50 3
e 29 57 2
e 29 30 4
e 29 31 2
e 29 32 9
e 29 37 1
e 29 45 3
e 29 53 9
e 29 61 5
e 30 39 8
e 30 48 8
e 30 37 6
e 30 44 9
e 30 51 10
e 30 58 6
e 30 31 10
e 30 32 9
e 30 38 5
e 30 46 4
e 30 54 9
e 30 62 1
e 31 40 2
e 31 38 5
e 31 45 7
e 31 52 10
e 31 59 3
e 31 32 4
e 31 39 6
e 31 47 3
e 31 55 10
e 31 63 1
e 32 39 6
e 32 46 8
e 32 53 1
e 32 60 8
e 32 40 8
e 32 48 5
e 32 56 5
e 32 64 7
e 33 42 5
e 33 51 9
e 33 60 4
e 33 34 8
e 33 35 10
e 33 36 5
e 33 37 1
e 33 38 3
e 33 39 6
e 33 40 5
e 33 41 7
e 33 49 4
e 33 57 1
e 34 43 6
e 34 52 7
e 34 61 4
e 34 41 1
e 34 35 5
e 34 36 6
e 34 37 4
e 34 38 5
e 34 39 10
e 34 40 1
e 34 42 1
e 34 50 4
e 34 58 4
e 35 44 4
e 35 53 7
e 35 62 1
e 35 42 9
e 35 49 5
e 35 36 7
e 35 37 9
e 35 38 1
e 35 39 4
e 35 40 10
e 35 43 2
e 35 51 7
e 35 59 8
e 36 45 7
e 36 54 3
e 36 63 10
e 36 43 1
e 36 50 2
e 36 57 3
e 36 37 2
e 36 38 5
e 36 39 3
e 36 40 8
e 36 44 5
e 36 52 10
e 36 60 8
e 37 46 6
e 37 55 4
e 37 64 6
e 37 44 6
e 37 51 5
e 37 58 6
e 37 38 7
e 37 39 5
e 37 40 3
e 37 45 7
e 37 53 1
e 37 61 6
e 38 47 6
e 38 56 9
e 38 45 7
e 38 52 10
e 38 59 2
e 38 39 10
e 38 40 4
e 38 46 3
e 38 54 7
e 38 62 10
e 39 48 9
e 39 46 4
e 39 53 8
e 39 60 9
e 39 40 9
e 39 47 7
e 39 55 10
e 39 63 1
e 40 47 9
e 40 54 3
e 40 61 7
e 40 48 5
e 40 56 10
e 40 64 10
e 41 50 1
e 41 59 10
e 41 42 3
e 41 43 6
e 41 44 8
e 41 45 1
e 41 46 2
e 41 47 4
e 41 48 3
e 41 49 7
e 41 57 9
e 42 51 8
e 42 60 10
e 42 49 10
e 42 43 8
e 42 44 3
e 42 45 6
e 42 46 2
e 42 47 7
e 42 48 5
e 42 50 4
e 42 58 9
e 43 52 8
e 43 61 2
e 43 50 1
e 43 57 6
e 43 44 1
e 43 45 4
e 43 46 1
e 43 47 10
e 43 48 9
e 43 51 10
e 43 59 1
e 44 53 5
e 44 62 1
e 44 51 9
e 44 58 6
e 44 45 7
e 44 46 9
e 44 47 2
e 44 48 2
e 44 52 10
e 44 60 6
e 45 54 9
e 45 63 10
e 45 52 1
e 45 59 4
e 45 46 8
e 45 47 7
e 45 48 5
e 45 53 7
e 45 61 8
e 46 55 9
e 46 64 2
e 46 53 5
e 46 60 8
e 46 47 9
e 46 48 5
e 46 54 10
e 46 62 1
e 47 56 10
e 47 54 10
e 47 61 5
e 47 48 1
e 47 55 8
e 47 63 8
e 48 55 5
e 48 62 5
e 48 56 10
e 48 64 2
e 49 58 10
e 49 50 8
e 49 51 9
e 49 52 2
e 49 53 8
e 49 54 2
e 49 55 5
e 49 56 1
e 49 57 5
e 50 59 4
e 50 57 10
e 50 51 8
e 50 52 5
e 50 53 9
e 50 54 1
e 50 55 10
e 50 56 6
e 50 58 2
e 51 60 2
e 51 58 10
e 51 52 8
e 51 53 8
e 51 54 10
e 51 55 1
e 51 56 5
e 51 59 1
e 52 61 1
e 52 59 4
e 52 53 10
e 52 54 10
e 52 55 2
e 52 56 6
e 52 60 8
e 53 62 7
e 53 60 6
e 53 54 3
e 53 55 5
e 53 56 1
e 53 61 6
e 54 63 6
e 54 61 4
e 54 55 8
e 54 56 7
e 54 62 7
e 55 64 9
e 55 62 6
e 55 56 3
e 55 63 9
e 56 63 1
e 56 64 3
e 57 58 9
e 57 59 7
e 57 60 8
e 57 61 3
e 57 62 10
e 57 63 7
e 57 64 5
e 58 59 10
e 58 60 6
e 58 61 8
e 58 62 10
e 58 63 5
e 58 64 3
e 59 60 10
e 59 61 4
e 59 62 3
e 59 63 8
e 59 64 2
e 60 61 1
e 60 62 2
e 60 63 9
e 60 64 7
e 61 62 7
e 61 63 2
e 61 64 10
e 62 63 8
e 62 64 6
e 63 64 6